Version identifier: 12.10.0.0 | 2019-11-26 | 843d4de
CPXPARAM_WorkMem                                 28672
Tried aggregator 2 times.
Aggregator did 45 substitutions.
Reduced MIP has 245 rows, 300 columns, and 1155 nonzeros.
Reduced MIP has 300 binaries, 0 generals, 0 SOSs, and 0 indicators.
Presolve time = 0,00 sec. (1,08 ticks)
Found incumbent of value 225,000000 after 0,01 sec. (2,14 ticks)
Probing time = 0,00 sec. (0,45 ticks)
Tried aggregator 1 time.
Detecting symmetries...
MIP Presolve eliminated 55 rows and 0 columns.
MIP Presolve added 110 rows and 0 columns.
Reduced MIP has 300 rows, 300 columns, and 1210 nonzeros.
Reduced MIP has 300 binaries, 0 generals, 0 SOSs, and 0 indicators.
Presolve time = 0,00 sec. (1,52 ticks)
Probing time = 0,00 sec. (0,43 ticks)
Clique table members: 795.
MIP emphasis: balance optimality and feasibility.
MIP search method: dynamic search.
Parallel mode: deterministic, using up to 16 threads.
Root relaxation solution time = 0,00 sec. (1,26 ticks)

        Nodes                                         Cuts/
   Node  Left     Objective  IInf  Best Integer    Best Bound    ItCnt     Gap

*     0+    0                          225,0000        0,0000           100,00%
*     0+    0                          109,0000        0,0000           100,00%
*     0+    0                          107,0000        0,0000           100,00%
      0     0       45,0000   207      107,0000       45,0000      120   57,94%
      0     0       45,0000   207      107,0000     Cuts: 103      180   57,94%
      0     0       45,0000   207      107,0000     Cuts: 175      258   57,94%
      0     0       45,3293   207      107,0000      Cuts: 97      393   57,64%
      0     0       45,4913   207      107,0000     Cuts: 140      427   57,48%
      0     0       45,5925   207      107,0000       Cuts: 5      457   57,39%
      0     0       52,0774   207      107,0000     Cuts: 175      632   51,33%
      0     0       52,5321   207      107,0000     Cuts: 106      721   50,90%
      0     0       52,6074   207      107,0000      Cuts: 71      753   50,83%
      0     0       52,7097   207      107,0000   ZeroHalf: 4      796   50,74%
      0     0       52,7386   207      107,0000   ZeroHalf: 3      821   50,71%
      0     0       52,7957   207      107,0000      Cuts: 39      851   50,66%
*     0+    0                          100,0000       52,7957            47,20%
      0     0       52,8338   207      100,0000   ZeroHalf: 6      885   47,17%
      0     0       52,8820   207      100,0000      Cuts: 15      919   47,12%
      0     0       53,0499   207      100,0000       Cuts: 5      955   46,95%
      0     0       53,0573   207      100,0000      Cuts: 24      966   46,94%
      0     2       53,0573   286      100,0000       54,7936      966   45,21%
Elapsed time = 0,24 sec. (146,19 ticks, tree = 0,02 MB, solutions = 4)
   2545   752       95,9904   108      100,0000       76,8355    75827   23,16%
*  3387+ 1127                           98,0000       89,3331             8,84%

Clique cuts applied:  61
Cover cuts applied:  359
Flow cuts applied:  3
Mixed integer rounding cuts applied:  112
Zero-half cuts applied:  21
Lift and project cuts applied:  16
Gomory fractional cuts applied:  10

Root node processing (before b&c):
  Real time             =    0,24 sec. (145,82 ticks)
Parallel b&c, 16 threads:
  Real time             =    0,47 sec. (344,41 ticks)
  Sync time (average)   =    0,16 sec.
  Wait time (average)   =    0,00 sec.
                          ------------
Total (root+branch&cut) =    0,70 sec. (490,24 ticks)
